language Essence 1.3

letting bot_end be [299, 267, 362, 200, 304, 116, 43, 145, 149, 182, 313, 367, 331, 330, 41, 225, 71, 354; int(1..18)]
letting bot_start be [227, 98, 181, 154, 247, 134, 359, 169, 332, 361, 200, 89, 219, 310, 111, 69, 336, 246; int(1..18)]
letting bots be 18
letting buffer_col be 2
letting buffer_row be 2
letting corridor_size be 1
letting n_shelves_col be 3
letting n_shelves_row be 13
letting shelf_col_size be 2
letting shelf_row_size be 1
